LatticeConstant 1.0 Ang
%block LatticeVectors
 15.51408800 0.00000000 0.00000000
 0.00000000 16.04741100 0.00000000
 0.00000000 0.00000000 10.88468100
%endblock LatticeVectors

NumberOfAtoms 16
AtomicCoordinatesFormat Ang
%block AtomicCoordinatesAndAtomicSpecies
  1.23000000  0.71000000  0.00000000 1 #  1: C
  2.44192300  1.41088700  0.00000000 2 #  2: N
  0.00000000  1.42000000  0.00000000 1 #  3: C
  0.00000000  2.49700000  0.00000000 3 #  4: H
 -1.23000000  0.71000000  0.00000000 1 #  5: C
 -2.54580200  1.47096300  0.00000000 4 #  6: Cl
 -1.23000000 -0.71000000  0.00000000 1 #  7: C
 -2.16200000 -1.24900000  0.00000000 3 #  8: H
  0.00000000 -1.42000000  0.00000000 1 #  9: C
 -0.00000000 -2.82000000  0.00000000 1 # 10: C
  1.23000000 -0.71000000  0.00000000 1 # 11: C
  2.16200000 -1.24900000  0.00000000 3 # 12: H
  2.25039600  2.39237400  0.00000000 3 # 13: H
  2.96828600  1.18189200  0.81884300 3 # 14: H
  1.30846300 -3.55041100 -0.06583800 5 # 15: O
 -0.85605500 -3.33267600  0.06581600 3 # 16: H
%endblock AtomicCoordinatesAndAtomicSpecies

NumberOfSpecies 5
%block ChemicalSpeciesLabel
 1 6 C
 2 7 N
 3 1 H
 4 17 Cl
 5 8 O
%endblock ChemicalSpeciesLabel
